101261
31,19,5,22,44,68,59,53,65,50,4,63,39,52,41,78,83,8,28,79,6,61,15,69,25,42,55,23,12,3,43,57,34,49,47,60,81,72,51,56,17,7,27,33,16,38,2,30,35,75,11,40,82,32,74,58,77,9,20,67,76,26,36,66,71,54,46,45,80,62,70,14,29,10,1,64,73,13,37,18,21,48,24
